p edges 100 2000
e 1 2
e 1 3
e 1 4
e 1 5
e 1 8
e 1 9
e 1 10
e 1 12
e 1 13
e 1 15
e 1 18
e 1 20
e 1 22
e 1 24
e 1 26
e 1 30
e 1 31
e 1 32
e 1 34
e 1 36
e 1 38
e 1 39
e 1 41
e 1 49
e 1 50
e 1 51
e 1 53
e 1 57
e 1 58
e 1 59
e 1 61
e 1 62
e 1 64
e 1 65
e 1 69
e 1 71
e 1 72
e 1 73
e 1 74
e 1 76
e 1 78
e 1 79
e 1 80
e 1 81
e 1 82
e 1 88
e 1 89
e 1 90
e 1 92
e 1 95
e 1 97
e 2 6
e 2 8
e 2 9
e 2 12
e 2 14
e 2 19
e 2 22
e 2 23
e 2 24
e 2 26
e 2 28
e 2 34
e 2 41
e 2 43
e 2 47
e 2 50
e 2 54
e 2 56
e 2 59
e 2 62
e 2 65
e 2 68
e 2 70
e 2 72
e 2 73
e 2 77
e 2 79
e 2 82
e 2 86
e 2 89
e 2 91
e 2 93
e 3 4
e 3 6
e 3 7
e 3 10
e 3 11
e 3 15
e 3 19
e 3 21
e 3 22
e 3 23
e 3 27
e 3 35
e 3 36
e 3 38
e 3 40
e 3 44
e 3 45
e 3 47
e 3 49
e 3 50
e 3 56
e 3 63
e 3 64
e 3 65
e 3 66
e 3 74
e 3 77
e 3 80
e 3 81
e 3 86
e 3 89
e 3 90
e 3 94
e 3 95
e 3 99
e 4 5
e 4 9
e 4 11
e 4 12
e 4 15
e 4 17
e 4 18
e 4 20
e 4 21
e 4 27
e 4 28
e 4 36
e 4 38
e 4 42
e 4 43
e 4 45
e 4 50
e 4 54
e 4 57
e 4 58
e 4 59
e 4 60
e 4 61
e 4 64
e 4 69
e 4 70
e 4 72
e 4 73
e 4 74
e 4 77
e 4 78
e 4 85
e 4 86
e 4 90
e 4 91
e 4 93
e 4 94
e 4 96
e 4 97
e 5 9
e 5 13
e 5 16
e 5 20
e 5 21
e 5 24
e 5 27
e 5 34
e 5 35
e 5 38
e 5 41
e 5 45
e 5 47
e 5 50
e 5 51
e 5 55
e 5 56
e 5 57
e 5 63
e 5 64
e 5 68
e 5 69
e 5 72
e 5 73
e 5 74
e 5 75
e 5 76
e 5 81
e 5 83
e 5 87
e 5 88
e 5 91
e 5 92
e 5 93
e 5 96
e 5 97
e 6 7
e 6 9
e 6 10
e 6 12
e 6 18
e 6 19
e 6 22
e 6 23
e 6 24
e 6 27
e 6 28
e 6 31
e 6 34
e 6 35
e 6 38
e 6 39
e 6 41
e 6 46
e 6 48
e 6 55
e 6 59
e 6 60
e 6 61
e 6 63
e 6 64
e 6 65
e 6 66
e 6 68
e 6 69
e 6 72
e 6 73
e 6 77
e 6 78
e 6 82
e 6 83
e 6 90
e 6 95
e 6 96
e 6 99
e 6 100
e 7 8
e 7 10
e 7 12
e 7 13
e 7 15
e 7 16
e 7 25
e 7 26
e 7 35
e 7 36
e 7 37
e 7 38
e 7 40
e 7 41
e 7 42
e 7 46
e 7 52
e 7 56
e 7 57
e 7 64
e 7 77
e 7 80
e 7 82
e 7 90
e 7 91
e 7 93
e 7 95
e 7 97
e 7 100
e 8 9
e 8 12
e 8 14
e 8 16
e 8 22
e 8 24
e 8 25
e 8 26
e 8 28
e 8 29
e 8 33
e 8 34
e 8 36
e 8 40
e 8 41
e 8 42
e 8 52
e 8 53
e 8 55
e 8 57
e 8 61
e 8 62
e 8 65
e 8 69
e 8 77
e 8 79
e 8 80
e 8 81
e 8 86
e 8 90
e 8 91
e 8 92
e 8 96
e 9 12
e 9 15
e 9 16
e 9 17
e 9 18
e 9 19
e 9 20
e 9 24
e 9 27
e 9 29
e 9 30
e 9 31
e 9 34
e 9 35
e 9 36
e 9 38
e 9 39
e 9 40
e 9 41
e 9 45
e 9 46
e 9 47
e 9 48
e 9 49
e 9 50
e 9 51
e 9 52
e 9 56
e 9 57
e 9 58
e 9 60
e 9 61
e 9 62
e 9 63
e 9 64
e 9 65
e 9 68
e 9 69
e 9 70
e 9 72
e 9 73
e 9 75
e 9 77
e 9 79
e 9 81
e 9 82
e 9 83
e 9 87
e 9 88
e 9 91
e 9 92
e 9 93
e 9 96
e 9 99
e 10 11
e 10 15
e 10 18
e 10 21
e 10 22
e 10 23
e 10 26
e 10 31
e 10 34
e 10 36
e 10 37
e 10 39
e 10 41
e 10 46
e 10 47
e 10 49
e 10 53
e 10 56
e 10 59
e 10 67
e 10 68
e 10 74
e 10 76
e 10 93
e 10 95
e 10 97
e 10 99
e 10 100
e 11 13
e 11 16
e 11 18
e 11 20
e 11 21
e 11 23
e 11 25
e 11 26
e 11 27
e 11 29
e 11 32
e 11 37
e 11 38
e 11 45
e 11 52
e 11 53
e 11 61
e 11 64
e 11 65
e 11 66
e 11 67
e 11 68
e 11 72
e 11 78
e 11 81
e 11 82
e 11 83
e 11 84
e 11 86
e 11 91
e 11 94
e 11 99
e 11 100
e 12 13
e 12 15
e 12 16
e 12 17
e 12 18
e 12 19
e 12 20
e 12 21
e 12 22
e 12 23
e 12 26
e 12 27
e 12 30
e 12 31
e 12 32
e 12 34
e 12 35
e 12 36
e 12 38
e 12 39
e 12 42
e 12 47
e 12 49
e 12 50
e 12 54
e 12 57
e 12 58
e 12 59
e 12 61
e 12 62
e 12 63
e 12 66
e 12 69
e 12 71
e 12 73
e 12 75
e 12 76
e 12 77
e 12 80
e 12 81
e 12 82
e 12 83
e 12 86
e 12 87
e 12 89
e 12 92
e 12 94
e 12 98
e 13 26
e 13 30
e 13 32
e 13 35
e 13 37
e 13 38
e 13 41
e 13 42
e 13 46
e 13 47
e 13 50
e 13 52
e 13 55
e 13 56
e 13 57
e 13 61
e 13 65
e 13 67
e 13 68
e 13 69
e 13 70
e 13 74
e 13 76
e 13 79
e 13 80
e 13 81
e 13 82
e 13 83
e 13 85
e 13 86
e 13 91
e 13 92
e 13 93
e 13 94
e 13 97
e 13 98
e 14 15
e 14 20
e 14 22
e 14 25
e 14 27
e 14 28
e 14 29
e 14 33
e 14 34
e 14 35
e 14 40
e 14 43
e 14 45
e 14 50
e 14 54
e 14 55
e 14 61
e 14 62
e 14 68
e 14 70
e 14 75
e 14 77
e 14 79
e 14 81
e 14 82
e 14 83
e 14 84
e 14 86
e 14 96
e 15 17
e 15 18
e 15 19
e 15 22
e 15 23
e 15 27
e 15 29
e 15 30
e 15 34
e 15 39
e 15 40
e 15 41
e 15 42
e 15 43
e 15 44
e 15 45
e 15 46
e 15 48
e 15 49
e 15 50
e 15 51
e 15 53
e 15 56
e 15 57
e 15 61
e 15 63
e 15 64
e 15 67
e 15 69
e 15 70
e 15 73
e 15 75
e 15 78
e 15 80
e 15 81
e 15 87
e 15 93
e 15 97
e 15 100
e 16 19
e 16 20
e 16 21
e 16 26
e 16 28
e 16 30
e 16 35
e 16 42
e 16 44
e 16 46
e 16 49
e 16 52
e 16 53
e 16 54
e 16 56
e 16 57
e 16 60
e 16 61
e 16 64
e 16 65
e 16 66
e 16 67
e 16 68
e 16 69
e 16 70
e 16 73
e 16 75
e 16 76
e 16 78
e 16 80
e 16 81
e 16 83
e 16 86
e 16 88
e 16 91
e 16 94
e 16 98
e 17 19
e 17 23
e 17 24
e 17 27
e 17 28
e 17 29
e 17 32
e 17 36
e 17 37
e 17 39
e 17 40
e 17 44
e 17 45
e 17 46
e 17 48
e 17 49
e 17 51
e 17 52
e 17 53
e 17 54
e 17 56
e 17 64
e 17 67
e 17 70
e 17 75
e 17 77
e 17 78
e 17 81
e 17 83
e 17 85
e 17 87
e 17 88
e 17 90
e 17 92
e 18 21
e 18 23
e 18 27
e 18 29
e 18 30
e 18 33
e 18 34
e 18 35
e 18 37
e 18 39
e 18 40
e 18 41
e 18 43
e 18 45
e 18 46
e 18 48
e 18 49
e 18 58
e 18 60
e 18 61
e 18 62
e 18 63
e 18 64
e 18 67
e 18 70
e 18 73
e 18 74
e 18 76
e 18 77
e 18 78
e 18 79
e 18 82
e 18 83
e 18 87
e 18 89
e 18 90
e 18 96
e 18 99
e 18 100
e 19 22
e 19 23
e 19 25
e 19 26
e 19 30
e 19 38
e 19 43
e 19 44
e 19 46
e 19 48
e 19 49
e 19 51
e 19 59
e 19 63
e 19 64
e 19 67
e 19 69
e 19 70
e 19 72
e 19 80
e 19 85
e 19 87
e 19 89
e 19 92
e 19 98
e 20 21
e 20 25
e 20 27
e 20 28
e 20 31
e 20 34
e 20 35
e 20 37
e 20 39
e 20 42
e 20 47
e 20 49
e 20 51
e 20 52
e 20 54
e 20 56
e 20 57
e 20 59
e 20 61
e 20 62
e 20 63
e 20 66
e 20 67
e 20 68
e 20 69
e 20 71
e 20 72
e 20 73
e 20 75
e 20 76
e 20 78
e 20 81
e 20 82
e 20 83
e 20 88
e 20 91
e 20 93
e 20 95
e 20 96
e 20 97
e 20 98
e 21 23
e 21 27
e 21 36
e 21 38
e 21 41
e 21 44
e 21 45
e 21 46
e 21 47
e 21 50
e 21 51
e 21 53
e 21 54
e 21 56
e 21 63
e 21 64
e 21 66
e 21 69
e 21 72
e 21 73
e 21 74
e 21 76
e 21 82
e 21 83
e 21 86
e 21 87
e 21 91
e 21 93
e 21 94
e 21 96
e 21 97
e 22 23
e 22 26
e 22 33
e 22 34
e 22 49
e 22 53
e 22 61
e 22 62
e 22 63
e 22 68
e 22 69
e 22 74
e 22 75
e 22 76
e 22 80
e 22 81
e 22 83
e 22 84
e 22 85
e 22 91
e 22 92
e 22 97
e 22 98
e 23 27
e 23 29
e 23 33
e 23 36
e 23 37
e 23 39
e 23 46
e 23 47
e 23 52
e 23 53
e 23 55
e 23 56
e 23 67
e 23 68
e 23 74
e 23 78
e 23 81
e 23 85
e 23 88
e 23 99
e 23 100
e 24 27
e 24 31
e 24 32
e 24 39
e 24 40
e 24 41
e 24 48
e 24 55
e 24 56
e 24 62
e 24 65
e 24 69
e 24 72
e 24 73
e 24 75
e 24 76
e 24 77
e 24 78
e 24 79
e 24 87
e 24 92
e 24 96
e 25 26
e 25 27
e 25 28
e 25 29
e 25 32
e 25 35
e 25 36
e 25 38
e 25 40
e 25 41
e 25 48
e 25 52
e 25 53
e 25 56
e 25 58
e 25 59
e 25 66
e 25 67
e 25 68
e 25 71
e 25 72
e 25 75
e 25 78
e 25 82
e 25 84
e 25 85
e 25 86
e 25 89
e 25 90
e 25 92
e 25 95
e 25 97
e 25 98
e 26 28
e 26 34
e 26 36
e 26 40
e 26 41
e 26 42
e 26 43
e 26 49
e 26 52
e 26 53
e 26 56
e 26 57
e 26 59
e 26 65
e 26 68
e 26 72
e 26 75
e 26 76
e 26 80
e 26 83
e 26 86
e 26 90
e 26 97
e 27 28
e 27 29
e 27 33
e 27 34
e 27 35
e 27 38
e 27 39
e 27 40
e 27 41
e 27 43
e 27 44
e 27 45
e 27 46
e 27 52
e 27 54
e 27 55
e 27 58
e 27 63
e 27 64
e 27 68
e 27 71
e 27 74
e 27 75
e 27 76
e 27 77
e 27 83
e 27 86
e 27 87
e 27 90
e 27 92
e 27 94
e 27 96
e 27 97
e 27 100
e 28 35
e 28 36
e 28 37
e 28 40
e 28 41
e 28 45
e 28 46
e 28 47
e 28 48
e 28 52
e 28 55
e 28 56
e 28 59
e 28 63
e 28 65
e 28 66
e 28 67
e 28 68
e 28 70
e 28 73
e 28 75
e 28 77
e 28 81
e 28 82
e 28 84
e 28 85
e 28 86
e 28 88
e 28 89
e 28 90
e 28 95
e 28 97
e 28 98
e 28 99
e 28 100
e 29 30
e 29 32
e 29 33
e 29 34
e 29 39
e 29 40
e 29 42
e 29 46
e 29 53
e 29 58
e 29 62
e 29 64
e 29 65
e 29 66
e 29 69
e 29 70
e 29 71
e 29 72
e 29 78
e 29 81
e 29 82
e 29 84
e 29 87
e 29 88
e 29 92
e 29 94
e 29 96
e 29 97
e 29 98
e 30 32
e 30 34
e 30 36
e 30 39
e 30 42
e 30 43
e 30 45
e 30 46
e 30 47
e 30 48
e 30 49
e 30 51
e 30 52
e 30 56
e 30 57
e 30 58
e 30 59
e 30 60
e 30 61
e 30 62
e 30 63
e 30 64
e 30 65
e 30 67
e 30 68
e 30 69
e 30 70
e 30 73
e 30 76
e 30 79
e 30 80
e 30 81
e 30 85
e 30 87
e 30 92
e 30 95
e 30 96
e 30 97
e 30 98
e 31 33
e 31 37
e 31 39
e 31 41
e 31 47
e 31 48
e 31 49
e 31 52
e 31 55
e 31 57
e 31 58
e 31 59
e 31 60
e 31 61
e 31 62
e 31 66
e 31 68
e 31 69
e 31 70
e 31 71
e 31 72
e 31 73
e 31 75
e 31 77
e 31 78
e 31 82
e 31 83
e 31 88
e 31 89
e 31 91
e 31 95
e 31 96
e 31 98
e 31 99
e 32 35
e 32 36
e 32 38
e 32 39
e 32 40
e 32 42
e 32 46
e 32 51
e 32 53
e 32 56
e 32 59
e 32 61
e 32 62
e 32 64
e 32 66
e 32 67
e 32 70
e 32 72
e 32 76
e 32 78
e 32 79
e 32 81
e 32 82
e 32 84
e 32 85
e 32 92
e 32 94
e 32 98
e 33 34
e 33 39
e 33 40
e 33 43
e 33 48
e 33 49
e 33 52
e 33 55
e 33 57
e 33 58
e 33 61
e 33 62
e 33 66
e 33 70
e 33 74
e 33 75
e 33 77
e 33 79
e 33 81
e 33 82
e 33 83
e 33 84
e 33 89
e 33 90
e 33 94
e 33 95
e 33 96
e 33 98
e 33 100
e 34 35
e 34 41
e 34 42
e 34 46
e 34 47
e 34 49
e 34 50
e 34 53
e 34 54
e 34 55
e 34 56
e 34 57
e 34 58
e 34 61
e 34 63
e 34 67
e 34 68
e 34 72
e 34 73
e 34 76
e 34 77
e 34 79
e 34 81
e 34 84
e 34 86
e 34 90
e 34 96
e 34 97
e 34 100
e 35 38
e 35 45
e 35 50
e 35 51
e 35 54
e 35 60
e 35 63
e 35 64
e 35 65
e 35 66
e 35 68
e 35 76
e 35 77
e 35 83
e 35 86
e 35 88
e 35 90
e 35 94
e 35 95
e 35 100
e 36 39
e 36 40
e 36 47
e 36 48
e 36 51
e 36 52
e 36 56
e 36 58
e 36 59
e 36 62
e 36 64
e 36 67
e 36 70
e 36 71
e 36 73
e 36 74
e 36 75
e 36 77
e 36 78
e 36 80
e 36 82
e 36 85
e 36 89
e 36 90
e 36 92
e 36 95
e 36 97
e 37 45
e 37 47
e 37 52
e 37 57
e 37 59
e 37 67
e 37 75
e 37 82
e 37 88
e 37 91
e 37 93
e 37 95
e 37 99
e 37 100
e 38 40
e 38 45
e 38 47
e 38 49
e 38 50
e 38 57
e 38 60
e 38 63
e 38 64
e 38 67
e 38 68
e 38 69
e 38 71
e 38 74
e 38 76
e 38 77
e 38 85
e 38 86
e 38 89
e 38 91
e 38 92
e 38 93
e 38 94
e 38 95
e 38 98
e 38 99
e 39 40
e 39 47
e 39 48
e 39 51
e 39 52
e 39 55
e 39 56
e 39 58
e 39 59
e 39 60
e 39 61
e 39 62
e 39 64
e 39 66
e 39 68
e 39 70
e 39 71
e 39 74
e 39 76
e 39 78
e 39 79
e 39 80
e 39 81
e 39 87
e 39 92
e 39 95
e 40 41
e 40 43
e 40 45
e 40 47
e 40 49
e 40 52
e 40 55
e 40 56
e 40 57
e 40 58
e 40 59
e 40 64
e 40 70
e 40 71
e 40 74
e 40 75
e 40 76
e 40 77
e 40 78
e 40 81
e 40 86
e 40 87
e 40 90
e 40 92
e 40 97
e 40 99
e 40 100
e 41 45
e 41 46
e 41 54
e 41 55
e 41 56
e 41 60
e 41 61
e 41 62
e 41 65
e 41 68
e 41 73
e 41 75
e 41 76
e 41 79
e 41 82
e 41 83
e 41 86
e 41 87
e 41 91
e 41 93
e 41 96
e 41 97
e 41 99
e 41 100
e 42 46
e 42 57
e 42 59
e 42 61
e 42 62
e 42 63
e 42 67
e 42 73
e 42 79
e 42 80
e 42 81
e 42 85
e 42 92
e 42 96
e 42 98
e 43 45
e 43 49
e 43 57
e 43 58
e 43 59
e 43 60
e 43 63
e 43 68
e 43 72
e 43 73
e 43 74
e 43 75
e 43 78
e 43 79
e 43 81
e 43 94
e 43 97
e 43 98
e 43 100
e 44 45
e 44 46
e 44 48
e 44 49
e 44 50
e 44 51
e 44 53
e 44 64
e 44 65
e 44 66
e 44 70
e 44 73
e 44 76
e 44 81
e 44 87
e 44 90
e 44 91
e 45 46
e 45 47
e 45 50
e 45 51
e 45 57
e 45 59
e 45 64
e 45 73
e 45 75
e 45 76
e 45 82
e 45 83
e 45 86
e 45 88
e 45 90
e 45 94
e 45 96
e 45 97
e 45 98
e 45 100
e 46 47
e 46 49
e 46 53
e 46 55
e 46 56
e 46 61
e 46 63
e 46 64
e 46 65
e 46 66
e 46 68
e 46 69
e 46 70
e 46 73
e 46 76
e 46 78
e 46 79
e 46 81
e 46 83
e 46 85
e 46 88
e 46 90
e 46 93
e 46 96
e 46 97
e 46 99
e 46 100
e 47 48
e 47 49
e 47 51
e 47 52
e 47 53
e 47 55
e 47 56
e 47 57
e 47 58
e 47 59
e 47 61
e 47 63
e 47 65
e 47 68
e 47 71
e 47 72
e 47 73
e 47 74
e 47 75
e 47 77
e 47 79
e 47 80
e 47 81
e 47 82
e 47 91
e 47 92
e 47 93
e 47 95
e 47 96
e 47 99
e 47 100
e 48 49
e 48 51
e 48 52
e 48 56
e 48 58
e 48 59
e 48 61
e 48 65
e 48 69
e 48 70
e 48 72
e 48 73
e 48 77
e 48 78
e 48 82
e 48 84
e 48 87
e 48 89
e 48 92
e 48 95
e 48 96
e 49 51
e 49 53
e 49 56
e 49 58
e 49 62
e 49 64
e 49 69
e 49 70
e 49 72
e 49 74
e 49 76
e 49 79
e 49 81
e 49 87
e 49 94
e 49 96
e 49 97
e 49 98
e 49 99
e 49 100
e 50 51
e 50 54
e 50 55
e 50 57
e 50 61
e 50 63
e 50 64
e 50 65
e 50 66
e 50 68
e 50 69
e 50 70
e 50 73
e 50 74
e 50 77
e 50 79
e 50 81
e 50 82
e 50 83
e 50 84
e 50 86
e 50 87
e 50 88
e 50 90
e 50 92
e 51 52
e 51 54
e 51 58
e 51 59
e 51 62
e 51 64
e 51 66
e 51 69
e 51 70
e 51 73
e 51 78
e 51 82
e 51 83
e 51 87
e 51 88
e 51 92
e 52 55
e 52 57
e 52 58
e 52 61
e 52 67
e 52 74
e 52 75
e 52 78
e 52 81
e 52 83
e 52 85
e 52 90
e 52 91
e 52 92
e 52 93
e 52 95
e 53 61
e 53 66
e 53 68
e 53 69
e 53 72
e 53 73
e 53 76
e 53 78
e 53 79
e 53 81
e 53 82
e 53 84
e 53 91
e 53 92
e 53 97
e 54 60
e 54 65
e 54 66
e 54 68
e 54 69
e 54 70
e 54 73
e 54 77
e 54 79
e 54 82
e 54 86
e 54 94
e 55 56
e 55 58
e 55 63
e 55 65
e 55 66
e 55 70
e 55 73
e 55 74
e 55 75
e 55 76
e 55 77
e 55 80
e 55 81
e 55 84
e 55 86
e 55 87
e 55 90
e 55 95
e 55 96
e 55 99
e 56 57
e 56 63
e 56 65
e 56 68
e 56 69
e 56 72
e 56 73
e 56 74
e 56 75
e 56 77
e 56 80
e 56 81
e 56 86
e 56 91
e 56 92
e 56 93
e 56 95
e 56 96
e 56 97
e 56 100
e 57 58
e 57 60
e 57 61
e 57 63
e 57 67
e 57 68
e 57 69
e 57 73
e 57 74
e 57 75
e 57 77
e 57 80
e 57 90
e 57 91
e 57 92
e 57 95
e 57 97
e 57 98
e 57 100
e 58 59
e 58 60
e 58 63
e 58 66
e 58 68
e 58 70
e 58 71
e 58 74
e 58 76
e 58 78
e 58 90
e 58 92
e 58 95
e 58 97
e 58 100
e 59 60
e 59 61
e 59 62
e 59 64
e 59 68
e 59 72
e 59 76
e 59 78
e 59 80
e 59 82
e 59 84
e 59 87
e 59 89
e 59 94
e 59 95
e 59 96
e 59 100
e 60 61
e 60 65
e 60 66
e 60 68
e 60 69
e 60 74
e 60 77
e 60 78
e 60 80
e 60 82
e 60 83
e 60 86
e 60 87
e 60 91
e 60 94
e 60 96
e 60 99
e 61 62
e 61 67
e 61 68
e 61 69
e 61 70
e 61 71
e 61 73
e 61 75
e 61 76
e 61 77
e 61 78
e 61 79
e 61 81
e 61 82
e 61 83
e 61 84
e 61 89
e 61 91
e 61 92
e 61 94
e 61 96
e 61 98
e 61 99
e 62 64
e 62 65
e 62 70
e 62 75
e 62 76
e 62 78
e 62 79
e 62 82
e 62 83
e 62 84
e 62 92
e 62 96
e 62 98
e 63 65
e 63 66
e 63 67
e 63 68
e 63 69
e 63 71
e 63 72
e 63 73
e 63 80
e 63 81
e 63 82
e 63 85
e 63 86
e 63 87
e 63 90
e 63 93
e 63 99
e 63 100
e 64 65
e 64 66
e 64 69
e 64 70
e 64 77
e 64 78
e 64 81
e 64 82
e 64 83
e 64 86
e 64 87
e 64 88
e 64 90
e 64 94
e 64 95
e 65 66
e 65 68
e 65 69
e 65 71
e 65 79
e 65 81
e 65 83
e 65 86
e 65 88
e 65 90
e 65 94
e 65 95
e 65 96
e 65 99
e 66 69
e 66 70
e 66 72
e 66 73
e 66 78
e 66 81
e 66 82
e 66 84
e 66 86
e 66 87
e 66 90
e 66 94
e 66 95
e 66 99
e 67 70
e 67 73
e 67 78
e 67 81
e 67 83
e 67 85
e 67 88
e 67 89
e 67 91
e 67 92
e 67 94
e 67 98
e 67 99
e 67 100
e 68 69
e 68 70
e 68 73
e 68 74
e 68 77
e 68 79
e 68 82
e 68 83
e 68 85
e 68 86
e 68 88
e 68 89
e 68 91
e 68 95
e 68 98
e 69 70
e 69 71
e 69 72
e 69 73
e 69 74
e 69 77
e 69 78
e 69 81
e 69 82
e 69 86
e 69 87
e 69 88
e 69 91
e 69 92
e 69 94
e 69 96
e 70 76
e 70 77
e 70 79
e 70 81
e 70 82
e 70 85
e 70 87
e 70 90
e 70 94
e 70 95
e 70 97
e 70 98
e 71 72
e 71 73
e 71 75
e 71 76
e 71 81
e 71 82
e 71 85
e 71 86
e 71 88
e 71 89
e 71 93
e 71 94
e 71 95
e 71 97
e 71 99
e 72 73
e 72 74
e 72 77
e 72 78
e 72 81
e 72 82
e 72 84
e 72 88
e 72 89
e 72 91
e 72 93
e 72 95
e 72 96
e 72 97
e 73 75
e 73 76
e 73 77
e 73 78
e 73 82
e 73 83
e 73 84
e 73 89
e 73 90
e 73 91
e 73 96
e 73 97
e 73 98
e 74 78
e 74 85
e 74 92
e 74 96
e 74 98
e 74 99
e 75 76
e 75 83
e 75 84
e 75 86
e 75 87
e 75 88
e 75 91
e 75 92
e 75 95
e 75 96
e 75 98
e 76 78
e 76 79
e 76 81
e 76 83
e 76 87
e 76 91
e 76 96
e 76 97
e 77 78
e 77 81
e 77 82
e 77 84
e 77 85
e 77 86
e 77 89
e 77 90
e 77 91
e 77 93
e 77 95
e 77 97
e 78 81
e 78 82
e 78 83
e 78 84
e 78 91
e 79 81
e 79 82
e 79 85
e 79 86
e 79 94
e 79 98
e 79 100
e 80 87
e 80 89
e 80 90
e 80 95
e 81 83
e 81 85
e 81 86
e 81 90
e 81 91
e 81 92
e 81 94
e 81 98
e 81 100
e 82 83
e 82 84
e 82 86
e 82 87
e 82 88
e 82 89
e 82 91
e 82 95
e 82 96
e 82 97
e 82 99
e 82 100
e 83 84
e 83 86
e 83 88
e 83 91
e 83 92
e 83 96
e 83 99
e 84 89
e 84 90
e 84 95
e 85 86
e 85 88
e 85 89
e 85 90
e 85 92
e 85 93
e 85 97
e 85 98
e 85 99
e 86 87
e 86 93
e 86 94
e 86 99
e 87 89
e 87 94
e 87 96
e 88 89
e 88 94
e 88 95
e 88 98
e 89 90
e 89 92
e 89 94
e 89 95
e 89 98
e 90 95
e 90 97
e 90 100
e 91 92
e 91 93
e 91 95
e 91 97
e 92 96
e 92 98
e 93 97
e 93 99
e 93 100
e 94 98
e 94 100
e 95 96
e 96 98
e 96 99
e 97 98
e 97 100
e 98 100
e 99 100
w 1 2
w 2 150
w 3 244
w 4 86
w 5 125
w 6 94
w 7 131
w 8 120
w 9 90
w 10 109
w 11 47
w 12 307
w 13 389
w 14 104
w 15 60
w 16 101
w 17 317
w 18 83
w 19 145
w 20 212
w 21 8
w 22 167
w 23 133
w 24 51
w 25 81
w 26 31
w 27 49
w 28 116
w 29 123
w 30 152
w 31 42
w 32 25
w 33 190
w 34 171
w 35 153
w 36 43
w 37 170
w 38 30
w 39 99
w 40 242
w 41 48
w 42 10
w 43 249
w 44 43
w 45 129
w 46 75
w 47 2
w 48 200
w 49 77
w 50 4
w 51 15
w 52 126
w 53 264
w 54 86
w 55 140
w 56 198
w 57 27
w 58 204
w 59 342
w 60 98
w 61 59
w 62 265
w 63 111
w 64 161
w 65 126
w 66 190
w 67 199
w 68 281
w 69 94
w 70 101
w 71 218
w 72 80
w 73 264
w 74 259
w 75 163
w 76 93
w 77 152
w 78 18
w 79 144
w 80 269
w 81 5
w 82 126
w 83 6
w 84 41
w 85 196
w 86 117
w 87 37
w 88 311
w 89 187
w 90 222
w 91 223
w 92 64
w 93 181
w 94 125
w 95 30
w 96 289
w 97 80
w 98 94
w 99 143
w 100 112
n 1 y0
n 2 y1
n 3 y6
n 4 y8
n 5 y23
n 6 y31
n 7 y40
n 8 y46
n 9 y54
n 10 y55
n 11 y57
n 12 y60
n 13 y64
n 14 y65
n 15 y67
n 16 y69
n 17 y74
n 18 y78
n 19 y82
n 20 y83
n 21 y84
n 22 y90
n 23 y91
n 24 y95
n 25 y99
n 26 y104
n 27 y112
n 28 y136
n 29 y141
n 30 y142
n 31 y146
n 32 y148
n 33 y154
n 34 y163
n 35 y166
n 36 y168
n 37 y179
n 38 y182
n 39 y186
n 40 y188
n 41 y192
n 42 y193
n 43 y196
n 44 y199
n 45 y204
n 46 y205
n 47 y209
n 48 y210
n 49 y212
n 50 y221
n 51 y228
n 52 y235
n 53 y244
n 54 y256
n 55 y260
n 56 y262
n 57 y263
n 58 y269
n 59 y274
n 60 y280
n 61 y281
n 62 y286
n 63 y287
n 64 y293
n 65 y297
n 66 y317
n 67 y320
n 68 y321
n 69 y324
n 70 y325
n 71 y327
n 72 y329
n 73 y337
n 74 y344
n 75 y367
n 76 y373
n 77 y378
n 78 y380
n 79 y385
n 80 y386
n 81 y390
n 82 y402
n 83 y403
n 84 y411
n 85 y412
n 86 y419
n 87 y420
n 88 y440
n 89 y442
n 90 y449
n 91 y457
n 92 y462
n 93 y463
n 94 y473
n 95 y474
n 96 y482
n 97 y484
n 98 y488
n 99 y493
n 100 y496
o 1 1
o 2 2
o 3 7
o 4 9
o 5 24
o 6 32
o 7 41
o 8 47
o 9 55
o 10 56
o 11 58
o 12 61
o 13 65
o 14 66
o 15 68
o 16 70
o 17 75
o 18 79
o 19 83
o 20 84
o 21 85
o 22 91
o 23 92
o 24 96
o 25 100
o 26 105
o 27 113
o 28 137
o 29 142
o 30 143
o 31 147
o 32 149
o 33 155
o 34 164
o 35 167
o 36 169
o 37 180
o 38 183
o 39 187
o 40 189
o 41 193
o 42 194
o 43 197
o 44 200
o 45 205
o 46 206
o 47 210
o 48 211
o 49 213
o 50 222
o 51 229
o 52 236
o 53 245
o 54 257
o 55 261
o 56 263
o 57 264
o 58 270
o 59 275
o 60 281
o 61 282
o 62 287
o 63 288
o 64 294
o 65 298
o 66 318
o 67 321
o 68 322
o 69 325
o 70 326
o 71 328
o 72 330
o 73 338
o 74 345
o 75 368
o 76 374
o 77 379
o 78 381
o 79 386
o 80 387
o 81 391
o 82 403
o 83 404
o 84 412
o 85 413
o 86 420
o 87 421
o 88 441
o 89 443
o 90 450
o 91 458
o 92 463
o 93 464
o 94 474
o 95 475
o 96 483
o 97 485
o 98 489
o 99 494
o 100 497
